tsp_instances/TSP20/instance94.tsp
NODE_COORD_SECTION
0 20 2
1 139 144
2 103 92
3 198 60
4 32 188
5 159 193
6 37 48
7 84 161
8 68 171
9 14 132
10 23 60
11 89 141
12 69 106
13 156 26
14 178 198
15 86 80
16 37 16
17 174 65
18 23 193
19 55 71
