tsp_instances/TSP20/instance94.opt.tour
TOUR_SECTION
1
11
10
19
5
9
8
12
2
6
15
4
18
14
3
16
13
20
7
17
-1